SECTION Graph
Nodes 512
Edges 2304
E 1 257 100
E 1 129 101
E 1 65 108
E 1 33 105
E 1 17 105
E 1 9 102
E 1 5 100
E 1 3 107
E 1 2 107
E 2 258 110
E 2 130 104
E 2 66 105
E 2 34 109
E 2 18 100
E 2 10 100
E 2 6 105
E 2 4 107
E 3 259 100
E 3 131 104
E 3 67 100
E 3 35 104
E 3 19 107
E 3 11 106
E 3 7 110
E 3 4 109
E 4 260 105
E 4 132 101
E 4 68 107
E 4 36 104
E 4 20 107
E 4 12 110
E 4 8 108
E 5 261 102
E 5 133 100
E 5 69 108
E 5 37 103
E 5 21 106
E 5 13 108
E 5 7 110
E 5 6 104
E 6 262 102
E 6 134 110
E 6 70 107
E 6 38 108
E 6 22 107
E 6 14 100
E 6 8 106
E 7 263 109
E 7 135 102
E 7 71 104
E 7 39 108
E 7 23 105
E 7 15 102
E 7 8 103
E 8 264 103
E 8 136 101
E 8 72 105
E 8 40 109
E 8 24 110
E 8 16 100
E 9 265 109
E 9 137 105
E 9 73 105
E 9 41 103
E 9 25 110
E 9 13 105
E 9 11 102
E 9 10 100
E 10 266 110
E 10 138 100
E 10 74 105
E 10 42 104
E 10 26 103
E 10 14 110
E 10 12 105
E 11 267 105
E 11 139 110
E 11 75 100
E 11 43 108
E 11 27 108
E 11 15 109
E 11 12 101
E 12 268 100
E 12 140 107
E 12 76 109
E 12 44 106
E 12 28 108
E 12 16 107
E 13 269 110
E 13 141 109
E 13 77 102
E 13 45 103
E 13 29 103
E 13 15 105
E 13 14 106
E 14 270 109
E 14 142 104
E 14 78 109
E 14 46 102
E 14 30 104
E 14 16 105
E 15 271 105
E 15 143 103
E 15 79 101
E 15 47 101
E 15 31 106
E 15 16 108
E 16 272 100
E 16 144 105
E 16 80 105
E 16 48 110
E 16 32 108
E 17 273 106
E 17 145 109
E 17 81 106
E 17 49 109
E 17 25 101
E 17 21 102
E 17 19 107
E 17 18 101
E 18 274 101
E 18 146 103
E 18 82 100
E 18 50 104
E 18 26 100
E 18 22 107
E 18 20 110
E 19 275 102
E 19 147 101
E 19 83 103
E 19 51 109
E 19 27 107
E 19 23 101
E 19 20 107
E 20 276 104
E 20 148 104
E 20 84 105
E 20 52 101
E 20 28 106
E 20 24 109
E 21 277 106
E 21 149 110
E 21 85 106
E 21 53 101
E 21 29 110
E 21 23 104
E 21 22 101
E 22 278 106
E 22 150 102
E 22 86 105
E 22 54 105
E 22 30 110
E 22 24 101
E 23 279 102
E 23 151 103
E 23 87 106
E 23 55 101
E 23 31 107
E 23 24 106
E 24 280 108
E 24 152 102
E 24 88 105
E 24 56 104
E 24 32 102
E 25 281 100
E 25 153 109
E 25 89 104
E 25 57 101
E 25 29 110
E 25 27 104
E 25 26 101
E 26 282 109
E 26 154 101
E 26 90 101
E 26 58 100
E 26 30 104
E 26 28 102
E 27 283 101
E 27 155 108
E 27 91 105
E 27 59 103
E 27 31 104
E 27 28 108
E 28 284 110
E 28 156 107
E 28 92 102
E 28 60 107
E 28 32 109
E 29 285 102
E 29 157 109
E 29 93 105
E 29 61 105
E 29 31 106
E 29 30 108
E 30 286 108
E 30 158 105
E 30 94 110
E 30 62 106
E 30 32 104
E 31 287 109
E 31 159 107
E 31 95 107
E 31 63 110
E 31 32 110
E 32 288 109
E 32 160 103
E 32 96 105
E 32 64 105
E 33 289 101
E 33 161 104
E 33 97 106
E 33 49 109
E 33 41 104
E 33 37 108
E 33 35 109
E 33 34 107
E 34 290 108
E 34 162 107
E 34 98 108
E 34 50 100
E 34 42 109
E 34 38 105
E 34 36 105
E 35 291 100
E 35 163 107
E 35 99 105
E 35 51 107
E 35 43 107
E 35 39 102
E 35 36 110
E 36 292 109
E 36 164 109
E 36 100 105
E 36 52 101
E 36 44 104
E 36 40 110
E 37 293 102
E 37 165 104
E 37 101 103
E 37 53 105
E 37 45 109
E 37 39 104
E 37 38 105
E 38 294 108
E 38 166 104
E 38 102 102
E 38 54 110
E 38 46 101
E 38 40 106
E 39 295 106
E 39 167 100
E 39 103 100
E 39 55 108
E 39 47 108
E 39 40 103
E 40 296 104
E 40 168 107
E 40 104 107
E 40 56 102
E 40 48 109
E 41 297 107
E 41 169 109
E 41 105 101
E 41 57 100
E 41 45 108
E 41 43 106
E 41 42 102
E 42 298 102
E 42 170 100
E 42 106 104
E 42 58 110
E 42 46 110
E 42 44 104
E 43 299 102
E 43 171 107
E 43 107 103
E 43 59 108
E 43 47 108
E 43 44 104
E 44 300 103
E 44 172 102
E 44 108 100
E 44 60 102
E 44 48 110
E 45 301 102
E 45 173 109
E 45 109 101
E 45 61 104
E 45 47 106
E 45 46 101
E 46 302 109
E 46 174 101
E 46 110 110
E 46 62 102
E 46 48 102
E 47 303 101
E 47 175 102
E 47 111 106
E 47 63 107
E 47 48 108
E 48 304 107
E 48 176 108
E 48 112 107
E 48 64 106
E 49 305 100
E 49 177 106
E 49 113 102
E 49 57 103
E 49 53 107
E 49 51 101
E 49 50 108
E 50 306 105
E 50 178 106
E 50 114 106
E 50 58 103
E 50 54 107
E 50 52 101
E 51 307 101
E 51 179 105
E 51 115 109
E 51 59 108
E 51 55 106
E 51 52 108
E 52 308 103
E 52 180 101
E 52 116 105
E 52 60 103
E 52 56 106
E 53 309 105
E 53 181 104
E 53 117 102
E 53 61 104
E 53 55 104
E 53 54 104
E 54 310 105
E 54 182 104
E 54 118 103
E 54 62 100
E 54 56 104
E 55 311 102
E 55 183 107
E 55 119 107
E 55 63 105
E 55 56 108
E 56 312 107
E 56 184 110
E 56 120 105
E 56 64 110
E 57 313 103
E 57 185 105
E 57 121 105
E 57 61 107
E 57 59 104
E 57 58 106
E 58 314 110
E 58 186 101
E 58 122 107
E 58 62 103
E 58 60 105
E 59 315 105
E 59 187 109
E 59 123 100
E 59 63 103
E 59 60 107
E 60 316 106
E 60 188 110
E 60 124 102
E 60 64 110
E 61 317 102
E 61 189 109
E 61 125 107
E 61 63 105
E 61 62 108
E 62 318 100
E 62 190 101
E 62 126 107
E 62 64 107
E 63 319 104
E 63 191 106
E 63 127 108
E 63 64 110
E 64 320 107
E 64 192 103
E 64 128 108
E 65 321 101
E 65 193 100
E 65 97 105
E 65 81 100
E 65 73 101
E 65 69 109
E 65 67 108
E 65 66 108
E 66 322 104
E 66 194 100
E 66 98 106
E 66 82 105
E 66 74 100
E 66 70 105
E 66 68 104
E 67 323 102
E 67 195 104
E 67 99 106
E 67 83 107
E 67 75 107
E 67 71 105
E 67 68 103
E 68 324 108
E 68 196 104
E 68 100 107
E 68 84 103
E 68 76 100
E 68 72 101
E 69 325 105
E 69 197 108
E 69 101 102
E 69 85 100
E 69 77 100
E 69 71 101
E 69 70 107
E 70 326 103
E 70 198 100
E 70 102 105
E 70 86 105
E 70 78 105
E 70 72 104
E 71 327 101
E 71 199 103
E 71 103 109
E 71 87 107
E 71 79 106
E 71 72 107
E 72 328 103
E 72 200 100
E 72 104 110
E 72 88 105
E 72 80 100
E 73 329 109
E 73 201 100
E 73 105 104
E 73 89 105
E 73 77 106
E 73 75 108
E 73 74 107
E 74 330 105
E 74 202 100
E 74 106 101
E 74 90 110
E 74 78 102
E 74 76 103
E 75 331 106
E 75 203 106
E 75 107 101
E 75 91 106
E 75 79 110
E 75 76 103
E 76 332 109
E 76 204 110
E 76 108 102
E 76 92 102
E 76 80 104
E 77 333 108
E 77 205 109
E 77 109 102
E 77 93 108
E 77 79 107
E 77 78 104
E 78 334 102
E 78 206 107
E 78 110 101
E 78 94 102
E 78 80 101
E 79 335 106
E 79 207 100
E 79 111 101
E 79 95 106
E 79 80 104
E 80 336 100
E 80 208 107
E 80 112 104
E 80 96 109
E 81 337 101
E 81 209 110
E 81 113 100
E 81 89 100
E 81 85 105
E 81 83 108
E 81 82 110
E 82 338 102
E 82 210 103
E 82 114 108
E 82 90 105
E 82 86 108
E 82 84 107
E 83 339 107
E 83 211 108
E 83 115 100
E 83 91 102
E 83 87 102
E 83 84 106
E 84 340 107
E 84 212 106
E 84 116 104
E 84 92 102
E 84 88 102
E 85 341 107
E 85 213 101
E 85 117 108
E 85 93 101
E 85 87 100
E 85 86 107
E 86 342 101
E 86 214 110
E 86 118 105
E 86 94 106
E 86 88 110
E 87 343 100
E 87 215 106
E 87 119 107
E 87 95 105
E 87 88 100
E 88 344 104
E 88 216 105
E 88 120 108
E 88 96 100
E 89 345 104
E 89 217 110
E 89 121 105
E 89 93 103
E 89 91 104
E 89 90 108
E 90 346 102
E 90 218 101
E 90 122 104
E 90 94 110
E 90 92 110
E 91 347 102
E 91 219 100
E 91 123 101
E 91 95 105
E 91 92 101
E 92 348 105
E 92 220 101
E 92 124 109
E 92 96 104
E 93 349 104
E 93 221 103
E 93 125 107
E 93 95 106
E 93 94 109
E 94 350 108
E 94 222 109
E 94 126 107
E 94 96 104
E 95 351 110
E 95 223 106
E 95 127 103
E 95 96 105
E 96 352 105
E 96 224 104
E 96 128 102
E 97 353 100
E 97 225 104
E 97 113 105
E 97 105 103
E 97 101 101
E 97 99 102
E 97 98 108
E 98 354 105
E 98 226 107
E 98 114 109
E 98 106 102
E 98 102 107
E 98 100 102
E 99 355 104
E 99 227 100
E 99 115 105
E 99 107 102
E 99 103 108
E 99 100 105
E 100 356 100
E 100 228 102
E 100 116 107
E 100 108 104
E 100 104 102
E 101 357 110
E 101 229 101
E 101 117 108
E 101 109 110
E 101 103 101
E 101 102 106
E 102 358 100
E 102 230 103
E 102 118 103
E 102 110 105
E 102 104 109
E 103 359 109
E 103 231 107
E 103 119 103
E 103 111 108
E 103 104 106
E 104 360 100
E 104 232 100
E 104 120 101
E 104 112 108
E 105 361 100
E 105 233 105
E 105 121 110
E 105 109 102
E 105 107 102
E 105 106 100
E 106 362 107
E 106 234 107
E 106 122 105
E 106 110 102
E 106 108 107
E 107 363 104
E 107 235 102
E 107 123 102
E 107 111 104
E 107 108 105
E 108 364 109
E 108 236 110
E 108 124 104
E 108 112 100
E 109 365 105
E 109 237 100
E 109 125 108
E 109 111 106
E 109 110 109
E 110 366 103
E 110 238 102
E 110 126 105
E 110 112 104
E 111 367 104
E 111 239 110
E 111 127 110
E 111 112 109
E 112 368 109
E 112 240 103
E 112 128 101
E 113 369 110
E 113 241 107
E 113 121 105
E 113 117 110
E 113 115 107
E 113 114 108
E 114 370 105
E 114 242 106
E 114 122 101
E 114 118 110
E 114 116 109
E 115 371 101
E 115 243 100
E 115 123 103
E 115 119 101
E 115 116 101
E 116 372 105
E 116 244 100
E 116 124 106
E 116 120 109
E 117 373 105
E 117 245 107
E 117 125 108
E 117 119 107
E 117 118 100
E 118 374 102
E 118 246 107
E 118 126 103
E 118 120 100
E 119 375 101
E 119 247 110
E 119 127 102
E 119 120 104
E 120 376 106
E 120 248 101
E 120 128 100
E 121 377 107
E 121 249 108
E 121 125 107
E 121 123 100
E 121 122 106
E 122 378 110
E 122 250 110
E 122 126 104
E 122 124 105
E 123 379 109
E 123 251 110
E 123 127 106
E 123 124 107
E 124 380 105
E 124 252 105
E 124 128 101
E 125 381 110
E 125 253 106
E 125 127 103
E 125 126 105
E 126 382 107
E 126 254 107
E 126 128 101
E 127 383 106
E 127 255 106
E 127 128 107
E 128 384 105
E 128 256 106
E 129 385 106
E 129 193 104
E 129 161 101
E 129 145 105
E 129 137 108
E 129 133 100
E 129 131 100
E 129 130 105
E 130 386 103
E 130 194 100
E 130 162 102
E 130 146 101
E 130 138 104
E 130 134 106
E 130 132 106
E 131 387 106
E 131 195 110
E 131 163 108
E 131 147 105
E 131 139 105
E 131 135 107
E 131 132 107
E 132 388 104
E 132 196 105
E 132 164 105
E 132 148 107
E 132 140 105
E 132 136 103
E 133 389 106
E 133 197 103
E 133 165 107
E 133 149 105
E 133 141 110
E 133 135 102
E 133 134 104
E 134 390 106
E 134 198 108
E 134 166 110
E 134 150 107
E 134 142 109
E 134 136 105
E 135 391 102
E 135 199 101
E 135 167 109
E 135 151 102
E 135 143 107
E 135 136 100
E 136 392 110
E 136 200 103
E 136 168 109
E 136 152 103
E 136 144 110
E 137 393 105
E 137 201 101
E 137 169 104
E 137 153 107
E 137 141 104
E 137 139 101
E 137 138 108
E 138 394 101
E 138 202 104
E 138 170 103
E 138 154 103
E 138 142 108
E 138 140 103
E 139 395 103
E 139 203 100
E 139 171 106
E 139 155 105
E 139 143 102
E 139 140 101
E 140 396 110
E 140 204 109
E 140 172 105
E 140 156 104
E 140 144 108
E 141 397 101
E 141 205 101
E 141 173 100
E 141 157 101
E 141 143 105
E 141 142 104
E 142 398 109
E 142 206 104
E 142 174 104
E 142 158 107
E 142 144 103
E 143 399 100
E 143 207 108
E 143 175 109
E 143 159 110
E 143 144 109
E 144 400 108
E 144 208 101
E 144 176 106
E 144 160 100
E 145 401 108
E 145 209 105
E 145 177 109
E 145 153 103
E 145 149 109
E 145 147 106
E 145 146 104
E 146 402 108
E 146 210 105
E 146 178 110
E 146 154 104
E 146 150 106
E 146 148 108
E 147 403 109
E 147 211 103
E 147 179 102
E 147 155 108
E 147 151 107
E 147 148 109
E 148 404 100
E 148 212 107
E 148 180 109
E 148 156 103
E 148 152 100
E 149 405 101
E 149 213 104
E 149 181 101
E 149 157 107
E 149 151 106
E 149 150 108
E 150 406 109
E 150 214 108
E 150 182 106
E 150 158 109
E 150 152 109
E 151 407 105
E 151 215 101
E 151 183 104
E 151 159 104
E 151 152 107
E 152 408 101
E 152 216 100
E 152 184 101
E 152 160 105
E 153 409 107
E 153 217 102
E 153 185 104
E 153 157 110
E 153 155 106
E 153 154 107
E 154 410 109
E 154 218 103
E 154 186 109
E 154 158 108
E 154 156 104
E 155 411 100
E 155 219 105
E 155 187 105
E 155 159 104
E 155 156 105
E 156 412 108
E 156 220 110
E 156 188 103
E 156 160 101
E 157 413 101
E 157 221 100
E 157 189 110
E 157 159 104
E 157 158 102
E 158 414 110
E 158 222 109
E 158 190 102
E 158 160 101
E 159 415 102
E 159 223 103
E 159 191 106
E 159 160 104
E 160 416 106
E 160 224 104
E 160 192 104
E 161 417 104
E 161 225 106
E 161 177 104
E 161 169 101
E 161 165 107
E 161 163 110
E 161 162 107
E 162 418 104
E 162 226 109
E 162 178 109
E 162 170 108
E 162 166 104
E 162 164 100
E 163 419 105
E 163 227 107
E 163 179 107
E 163 171 107
E 163 167 108
E 163 164 104
E 164 420 103
E 164 228 104
E 164 180 103
E 164 172 107
E 164 168 101
E 165 421 103
E 165 229 107
E 165 181 109
E 165 173 103
E 165 167 101
E 165 166 106
E 166 422 100
E 166 230 110
E 166 182 104
E 166 174 105
E 166 168 103
E 167 423 102
E 167 231 103
E 167 183 109
E 167 175 101
E 167 168 106
E 168 424 100
E 168 232 105
E 168 184 104
E 168 176 101
E 169 425 108
E 169 233 107
E 169 185 100
E 169 173 108
E 169 171 106
E 169 170 103
E 170 426 104
E 170 234 103
E 170 186 105
E 170 174 107
E 170 172 109
E 171 427 102
E 171 235 105
E 171 187 104
E 171 175 100
E 171 172 100
E 172 428 102
E 172 236 106
E 172 188 109
E 172 176 104
E 173 429 109
E 173 237 103
E 173 189 101
E 173 175 103
E 173 174 110
E 174 430 106
E 174 238 104
E 174 190 105
E 174 176 106
E 175 431 110
E 175 239 104
E 175 191 100
E 175 176 104
E 176 432 106
E 176 240 108
E 176 192 109
E 177 433 101
E 177 241 101
E 177 185 107
E 177 181 109
E 177 179 106
E 177 178 107
E 178 434 110
E 178 242 100
E 178 186 110
E 178 182 102
E 178 180 110
E 179 435 105
E 179 243 103
E 179 187 107
E 179 183 106
E 179 180 109
E 180 436 109
E 180 244 107
E 180 188 108
E 180 184 107
E 181 437 103
E 181 245 105
E 181 189 107
E 181 183 103
E 181 182 109
E 182 438 104
E 182 246 110
E 182 190 103
E 182 184 110
E 183 439 101
E 183 247 104
E 183 191 109
E 183 184 110
E 184 440 103
E 184 248 105
E 184 192 105
E 185 441 108
E 185 249 110
E 185 189 107
E 185 187 102
E 185 186 110
E 186 442 106
E 186 250 101
E 186 190 102
E 186 188 109
E 187 443 102
E 187 251 101
E 187 191 109
E 187 188 106
E 188 444 106
E 188 252 109
E 188 192 107
E 189 445 104
E 189 253 109
E 189 191 107
E 189 190 101
E 190 446 100
E 190 254 107
E 190 192 106
E 191 447 105
E 191 255 106
E 191 192 100
E 192 448 103
E 192 256 109
E 193 449 104
E 193 225 107
E 193 209 106
E 193 201 100
E 193 197 108
E 193 195 103
E 193 194 104
E 194 450 101
E 194 226 101
E 194 210 109
E 194 202 110
E 194 198 106
E 194 196 100
E 195 451 107
E 195 227 105
E 195 211 106
E 195 203 109
E 195 199 104
E 195 196 107
E 196 452 102
E 196 228 105
E 196 212 102
E 196 204 110
E 196 200 102
E 197 453 110
E 197 229 105
E 197 213 101
E 197 205 110
E 197 199 109
E 197 198 102
E 198 454 100
E 198 230 108
E 198 214 100
E 198 206 110
E 198 200 107
E 199 455 106
E 199 231 101
E 199 215 101
E 199 207 109
E 199 200 105
E 200 456 107
E 200 232 105
E 200 216 105
E 200 208 101
E 201 457 109
E 201 233 107
E 201 217 103
E 201 205 104
E 201 203 104
E 201 202 109
E 202 458 102
E 202 234 101
E 202 218 108
E 202 206 107
E 202 204 102
E 203 459 109
E 203 235 100
E 203 219 101
E 203 207 102
E 203 204 103
E 204 460 108
E 204 236 107
E 204 220 107
E 204 208 106
E 205 461 103
E 205 237 101
E 205 221 103
E 205 207 101
E 205 206 102
E 206 462 107
E 206 238 104
E 206 222 109
E 206 208 106
E 207 463 103
E 207 239 104
E 207 223 107
E 207 208 109
E 208 464 108
E 208 240 109
E 208 224 103
E 209 465 102
E 209 241 101
E 209 217 105
E 209 213 100
E 209 211 110
E 209 210 108
E 210 466 101
E 210 242 101
E 210 218 104
E 210 214 108
E 210 212 102
E 211 467 104
E 211 243 100
E 211 219 110
E 211 215 101
E 211 212 102
E 212 468 105
E 212 244 108
E 212 220 102
E 212 216 102
E 213 469 103
E 213 245 104
E 213 221 102
E 213 215 110
E 213 214 108
E 214 470 106
E 214 246 106
E 214 222 103
E 214 216 109
E 215 471 102
E 215 247 101
E 215 223 108
E 215 216 107
E 216 472 100
E 216 248 108
E 216 224 101
E 217 473 109
E 217 249 107
E 217 221 103
E 217 219 104
E 217 218 102
E 218 474 103
E 218 250 100
E 218 222 110
E 218 220 108
E 219 475 104
E 219 251 108
E 219 223 109
E 219 220 109
E 220 476 101
E 220 252 103
E 220 224 110
E 221 477 103
E 221 253 103
E 221 223 100
E 221 222 106
E 222 478 108
E 222 254 109
E 222 224 105
E 223 479 108
E 223 255 107
E 223 224 104
E 224 480 103
E 224 256 103
E 225 481 103
E 225 241 110
E 225 233 106
E 225 229 108
E 225 227 101
E 225 226 108
E 226 482 102
E 226 242 106
E 226 234 109
E 226 230 103
E 226 228 106
E 227 483 101
E 227 243 104
E 227 235 101
E 227 231 102
E 227 228 101
E 228 484 102
E 228 244 108
E 228 236 100
E 228 232 105
E 229 485 110
E 229 245 102
E 229 237 102
E 229 231 107
E 229 230 100
E 230 486 109
E 230 246 101
E 230 238 101
E 230 232 108
E 231 487 110
E 231 247 100
E 231 239 100
E 231 232 109
E 232 488 101
E 232 248 108
E 232 240 102
E 233 489 104
E 233 249 106
E 233 237 107
E 233 235 100
E 233 234 110
E 234 490 108
E 234 250 104
E 234 238 100
E 234 236 101
E 235 491 110
E 235 251 109
E 235 239 107
E 235 236 109
E 236 492 102
E 236 252 107
E 236 240 106
E 237 493 102
E 237 253 102
E 237 239 100
E 237 238 104
E 238 494 104
E 238 254 110
E 238 240 100
E 239 495 105
E 239 255 104
E 239 240 109
E 240 496 108
E 240 256 106
E 241 497 103
E 241 249 106
E 241 245 107
E 241 243 107
E 241 242 102
E 242 498 100
E 242 250 110
E 242 246 102
E 242 244 107
E 243 499 106
E 243 251 104
E 243 247 101
E 243 244 104
E 244 500 101
E 244 252 106
E 244 248 105
E 245 501 105
E 245 253 109
E 245 247 100
E 245 246 103
E 246 502 101
E 246 254 103
E 246 248 109
E 247 503 110
E 247 255 109
E 247 248 110
E 248 504 108
E 248 256 108
E 249 505 109
E 249 253 104
E 249 251 107
E 249 250 107
E 250 506 108
E 250 254 105
E 250 252 102
E 251 507 104
E 251 255 110
E 251 252 105
E 252 508 104
E 252 256 105
E 253 509 102
E 253 255 109
E 253 254 110
E 254 510 101
E 254 256 105
E 255 511 107
E 255 256 103
E 256 512 104
E 257 385 108
E 257 321 100
E 257 289 103
E 257 273 102
E 257 265 108
E 257 261 103
E 257 259 107
E 257 258 104
E 258 386 108
E 258 322 107
E 258 290 106
E 258 274 106
E 258 266 108
E 258 262 100
E 258 260 106
E 259 387 103
E 259 323 105
E 259 291 105
E 259 275 105
E 259 267 103
E 259 263 109
E 259 260 101
E 260 388 104
E 260 324 104
E 260 292 109
E 260 276 100
E 260 268 105
E 260 264 108
E 261 389 103
E 261 325 110
E 261 293 110
E 261 277 110
E 261 269 108
E 261 263 103
E 261 262 108
E 262 390 102
E 262 326 106
E 262 294 105
E 262 278 102
E 262 270 102
E 262 264 106
E 263 391 105
E 263 327 108
E 263 295 106
E 263 279 110
E 263 271 108
E 263 264 106
E 264 392 101
E 264 328 101
E 264 296 105
E 264 280 102
E 264 272 106
E 265 393 103
E 265 329 107
E 265 297 100
E 265 281 109
E 265 269 109
E 265 267 103
E 265 266 101
E 266 394 108
E 266 330 107
E 266 298 104
E 266 282 106
E 266 270 106
E 266 268 105
E 267 395 106
E 267 331 110
E 267 299 106
E 267 283 102
E 267 271 100
E 267 268 106
E 268 396 103
E 268 332 100
E 268 300 101
E 268 284 106
E 268 272 104
E 269 397 106
E 269 333 108
E 269 301 104
E 269 285 104
E 269 271 104
E 269 270 100
E 270 398 106
E 270 334 104
E 270 302 101
E 270 286 103
E 270 272 107
E 271 399 106
E 271 335 109
E 271 303 105
E 271 287 110
E 271 272 100
E 272 400 105
E 272 336 101
E 272 304 110
E 272 288 106
E 273 401 107
E 273 337 101
E 273 305 105
E 273 281 100
E 273 277 104
E 273 275 110
E 273 274 104
E 274 402 109
E 274 338 110
E 274 306 106
E 274 282 101
E 274 278 109
E 274 276 102
E 275 403 107
E 275 339 107
E 275 307 110
E 275 283 105
E 275 279 101
E 275 276 101
E 276 404 103
E 276 340 110
E 276 308 106
E 276 284 109
E 276 280 100
E 277 405 110
E 277 341 110
E 277 309 105
E 277 285 103
E 277 279 105
E 277 278 104
E 278 406 109
E 278 342 102
E 278 310 104
E 278 286 108
E 278 280 108
E 279 407 107
E 279 343 107
E 279 311 107
E 279 287 103
E 279 280 101
E 280 408 107
E 280 344 110
E 280 312 101
E 280 288 100
E 281 409 101
E 281 345 101
E 281 313 102
E 281 285 107
E 281 283 107
E 281 282 105
E 282 410 103
E 282 346 105
E 282 314 103
E 282 286 101
E 282 284 109
E 283 411 104
E 283 347 101
E 283 315 107
E 283 287 110
E 283 284 109
E 284 412 107
E 284 348 102
E 284 316 101
E 284 288 100
E 285 413 101
E 285 349 101
E 285 317 103
E 285 287 106
E 285 286 110
E 286 414 102
E 286 350 100
E 286 318 100
E 286 288 109
E 287 415 109
E 287 351 110
E 287 319 106
E 287 288 101
E 288 416 105
E 288 352 108
E 288 320 110
E 289 417 106
E 289 353 106
E 289 305 105
E 289 297 108
E 289 293 103
E 289 291 101
E 289 290 105
E 290 418 104
E 290 354 109
E 290 306 110
E 290 298 100
E 290 294 103
E 290 292 105
E 291 419 109
E 291 355 109
E 291 307 102
E 291 299 108
E 291 295 109
E 291 292 104
E 292 420 107
E 292 356 104
E 292 308 105
E 292 300 105
E 292 296 101
E 293 421 104
E 293 357 108
E 293 309 102
E 293 301 103
E 293 295 102
E 293 294 108
E 294 422 106
E 294 358 107
E 294 310 103
E 294 302 101
E 294 296 102
E 295 423 105
E 295 359 105
E 295 311 101
E 295 303 110
E 295 296 104
E 296 424 100
E 296 360 101
E 296 312 106
E 296 304 110
E 297 425 101
E 297 361 103
E 297 313 103
E 297 301 103
E 297 299 101
E 297 298 103
E 298 426 104
E 298 362 107
E 298 314 106
E 298 302 100
E 298 300 103
E 299 427 100
E 299 363 105
E 299 315 105
E 299 303 103
E 299 300 102
E 300 428 104
E 300 364 107
E 300 316 103
E 300 304 100
E 301 429 110
E 301 365 101
E 301 317 103
E 301 303 110
E 301 302 103
E 302 430 101
E 302 366 110
E 302 318 101
E 302 304 100
E 303 431 110
E 303 367 108
E 303 319 102
E 303 304 101
E 304 432 102
E 304 368 104
E 304 320 102
E 305 433 103
E 305 369 106
E 305 313 109
E 305 309 109
E 305 307 107
E 305 306 106
E 306 434 108
E 306 370 109
E 306 314 109
E 306 310 108
E 306 308 102
E 307 435 110
E 307 371 102
E 307 315 104
E 307 311 103
E 307 308 108
E 308 436 110
E 308 372 108
E 308 316 104
E 308 312 107
E 309 437 105
E 309 373 101
E 309 317 102
E 309 311 109
E 309 310 105
E 310 438 110
E 310 374 109
E 310 318 103
E 310 312 106
E 311 439 110
E 311 375 105
E 311 319 109
E 311 312 100
E 312 440 102
E 312 376 110
E 312 320 108
E 313 441 109
E 313 377 100
E 313 317 105
E 313 315 104
E 313 314 110
E 314 442 102
E 314 378 102
E 314 318 106
E 314 316 109
E 315 443 106
E 315 379 100
E 315 319 108
E 315 316 108
E 316 444 107
E 316 380 100
E 316 320 109
E 317 445 100
E 317 381 110
E 317 319 102
E 317 318 105
E 318 446 107
E 318 382 108
E 318 320 110
E 319 447 107
E 319 383 110
E 319 320 101
E 320 448 108
E 320 384 103
E 321 449 105
E 321 353 110
E 321 337 107
E 321 329 104
E 321 325 101
E 321 323 109
E 321 322 102
E 322 450 106
E 322 354 104
E 322 338 102
E 322 330 108
E 322 326 102
E 322 324 107
E 323 451 103
E 323 355 105
E 323 339 104
E 323 331 106
E 323 327 107
E 323 324 100
E 324 452 109
E 324 356 104
E 324 340 105
E 324 332 110
E 324 328 108
E 325 453 108
E 325 357 108
E 325 341 104
E 325 333 104
E 325 327 102
E 325 326 107
E 326 454 102
E 326 358 107
E 326 342 104
E 326 334 103
E 326 328 103
E 327 455 103
E 327 359 107
E 327 343 110
E 327 335 108
E 327 328 109
E 328 456 100
E 328 360 110
E 328 344 100
E 328 336 104
E 329 457 101
E 329 361 108
E 329 345 100
E 329 333 106
E 329 331 110
E 329 330 101
E 330 458 105
E 330 362 100
E 330 346 106
E 330 334 104
E 330 332 105
E 331 459 104
E 331 363 104
E 331 347 106
E 331 335 110
E 331 332 107
E 332 460 106
E 332 364 100
E 332 348 103
E 332 336 104
E 333 461 108
E 333 365 106
E 333 349 106
E 333 335 102
E 333 334 101
E 334 462 101
E 334 366 103
E 334 350 108
E 334 336 102
E 335 463 102
E 335 367 104
E 335 351 107
E 335 336 105
E 336 464 100
E 336 368 105
E 336 352 104
E 337 465 101
E 337 369 105
E 337 345 101
E 337 341 102
E 337 339 104
E 337 338 103
E 338 466 110
E 338 370 109
E 338 346 103
E 338 342 104
E 338 340 108
E 339 467 110
E 339 371 103
E 339 347 106
E 339 343 106
E 339 340 101
E 340 468 105
E 340 372 105
E 340 348 108
E 340 344 100
E 341 469 102
E 341 373 101
E 341 349 104
E 341 343 104
E 341 342 102
E 342 470 101
E 342 374 109
E 342 350 102
E 342 344 109
E 343 471 108
E 343 375 110
E 343 351 102
E 343 344 103
E 344 472 106
E 344 376 107
E 344 352 105
E 345 473 105
E 345 377 103
E 345 349 109
E 345 347 104
E 345 346 100
E 346 474 110
E 346 378 110
E 346 350 106
E 346 348 110
E 347 475 104
E 347 379 106
E 347 351 108
E 347 348 104
E 348 476 100
E 348 380 105
E 348 352 101
E 349 477 106
E 349 381 110
E 349 351 107
E 349 350 102
E 350 478 106
E 350 382 109
E 350 352 103
E 351 479 103
E 351 383 110
E 351 352 110
E 352 480 106
E 352 384 103
E 353 481 105
E 353 369 100
E 353 361 108
E 353 357 107
E 353 355 106
E 353 354 102
E 354 482 102
E 354 370 101
E 354 362 103
E 354 358 102
E 354 356 108
E 355 483 109
E 355 371 108
E 355 363 100
E 355 359 101
E 355 356 102
E 356 484 108
E 356 372 105
E 356 364 104
E 356 360 109
E 357 485 103
E 357 373 106
E 357 365 108
E 357 359 110
E 357 358 110
E 358 486 109
E 358 374 108
E 358 366 107
E 358 360 109
E 359 487 106
E 359 375 108
E 359 367 104
E 359 360 106
E 360 488 104
E 360 376 108
E 360 368 105
E 361 489 107
E 361 377 108
E 361 365 106
E 361 363 103
E 361 362 106
E 362 490 105
E 362 378 109
E 362 366 104
E 362 364 102
E 363 491 105
E 363 379 100
E 363 367 107
E 363 364 101
E 364 492 106
E 364 380 107
E 364 368 107
E 365 493 108
E 365 381 107
E 365 367 110
E 365 366 103
E 366 494 108
E 366 382 100
E 366 368 100
E 367 495 100
E 367 383 110
E 367 368 102
E 368 496 108
E 368 384 102
E 369 497 103
E 369 377 108
E 369 373 103
E 369 371 105
E 369 370 110
E 370 498 110
E 370 378 109
E 370 374 102
E 370 372 108
E 371 499 107
E 371 379 105
E 371 375 105
E 371 372 102
E 372 500 105
E 372 380 109
E 372 376 109
E 373 501 110
E 373 381 110
E 373 375 110
E 373 374 101
E 374 502 102
E 374 382 104
E 374 376 108
E 375 503 108
E 375 383 108
E 375 376 104
E 376 504 104
E 376 384 106
E 377 505 107
E 377 381 108
E 377 379 109
E 377 378 102
E 378 506 108
E 378 382 101
E 378 380 101
E 379 507 108
E 379 383 110
E 379 380 100
E 380 508 104
E 380 384 109
E 381 509 106
E 381 383 110
E 381 382 104
E 382 510 110
E 382 384 108
E 383 511 104
E 383 384 102
E 384 512 109
E 385 449 100
E 385 417 102
E 385 401 101
E 385 393 109
E 385 389 100
E 385 387 110
E 385 386 109
E 386 450 109
E 386 418 105
E 386 402 108
E 386 394 110
E 386 390 104
E 386 388 102
E 387 451 104
E 387 419 101
E 387 403 103
E 387 395 101
E 387 391 102
E 387 388 104
E 388 452 109
E 388 420 109
E 388 404 110
E 388 396 108
E 388 392 104
E 389 453 108
E 389 421 107
E 389 405 105
E 389 397 104
E 389 391 106
E 389 390 106
E 390 454 107
E 390 422 110
E 390 406 108
E 390 398 100
E 390 392 106
E 391 455 101
E 391 423 109
E 391 407 107
E 391 399 103
E 391 392 102
E 392 456 104
E 392 424 107
E 392 408 102
E 392 400 101
E 393 457 107
E 393 425 106
E 393 409 107
E 393 397 100
E 393 395 109
E 393 394 102
E 394 458 102
E 394 426 108
E 394 410 108
E 394 398 110
E 394 396 107
E 395 459 108
E 395 427 102
E 395 411 102
E 395 399 100
E 395 396 109
E 396 460 108
E 396 428 102
E 396 412 104
E 396 400 102
E 397 461 107
E 397 429 109
E 397 413 100
E 397 399 106
E 397 398 106
E 398 462 105
E 398 430 101
E 398 414 107
E 398 400 100
E 399 463 104
E 399 431 105
E 399 415 101
E 399 400 107
E 400 464 104
E 400 432 100
E 400 416 102
E 401 465 103
E 401 433 106
E 401 409 104
E 401 405 105
E 401 403 108
E 401 402 100
E 402 466 108
E 402 434 100
E 402 410 102
E 402 406 105
E 402 404 109
E 403 467 103
E 403 435 104
E 403 411 109
E 403 407 108
E 403 404 103
E 404 468 108
E 404 436 107
E 404 412 109
E 404 408 109
E 405 469 104
E 405 437 102
E 405 413 106
E 405 407 105
E 405 406 103
E 406 470 107
E 406 438 110
E 406 414 102
E 406 408 101
E 407 471 102
E 407 439 108
E 407 415 109
E 407 408 104
E 408 472 109
E 408 440 106
E 408 416 100
E 409 473 108
E 409 441 105
E 409 413 110
E 409 411 103
E 409 410 108
E 410 474 101
E 410 442 109
E 410 414 103
E 410 412 107
E 411 475 101
E 411 443 103
E 411 415 109
E 411 412 100
E 412 476 106
E 412 444 110
E 412 416 109
E 413 477 106
E 413 445 102
E 413 415 100
E 413 414 106
E 414 478 107
E 414 446 101
E 414 416 100
E 415 479 103
E 415 447 106
E 415 416 104
E 416 480 102
E 416 448 100
E 417 481 108
E 417 433 100
E 417 425 103
E 417 421 108
E 417 419 104
E 417 418 103
E 418 482 103
E 418 434 110
E 418 426 106
E 418 422 107
E 418 420 103
E 419 483 101
E 419 435 105
E 419 427 106
E 419 423 107
E 419 420 107
E 420 484 108
E 420 436 105
E 420 428 108
E 420 424 101
E 421 485 103
E 421 437 100
E 421 429 104
E 421 423 108
E 421 422 110
E 422 486 106
E 422 438 106
E 422 430 106
E 422 424 110
E 423 487 108
E 423 439 101
E 423 431 105
E 423 424 104
E 424 488 105
E 424 440 105
E 424 432 106
E 425 489 101
E 425 441 107
E 425 429 105
E 425 427 103
E 425 426 106
E 426 490 100
E 426 442 109
E 426 430 108
E 426 428 105
E 427 491 104
E 427 443 105
E 427 431 101
E 427 428 107
E 428 492 100
E 428 444 107
E 428 432 101
E 429 493 102
E 429 445 110
E 429 431 108
E 429 430 109
E 430 494 103
E 430 446 103
E 430 432 107
E 431 495 109
E 431 447 104
E 431 432 104
E 432 496 104
E 432 448 100
E 433 497 104
E 433 441 107
E 433 437 105
E 433 435 102
E 433 434 108
E 434 498 107
E 434 442 105
E 434 438 104
E 434 436 105
E 435 499 101
E 435 443 104
E 435 439 108
E 435 436 100
E 436 500 105
E 436 444 101
E 436 440 108
E 437 501 106
E 437 445 106
E 437 439 105
E 437 438 107
E 438 502 105
E 438 446 107
E 438 440 110
E 439 503 107
E 439 447 110
E 439 440 104
E 440 504 106
E 440 448 102
E 441 505 105
E 441 445 103
E 441 443 107
E 441 442 107
E 442 506 109
E 442 446 105
E 442 444 108
E 443 507 101
E 443 447 104
E 443 444 102
E 444 508 100
E 444 448 105
E 445 509 109
E 445 447 103
E 445 446 105
E 446 510 107
E 446 448 102
E 447 511 106
E 447 448 103
E 448 512 109
E 449 481 104
E 449 465 100
E 449 457 109
E 449 453 101
E 449 451 110
E 449 450 109
E 450 482 109
E 450 466 100
E 450 458 110
E 450 454 103
E 450 452 108
E 451 483 101
E 451 467 109
E 451 459 108
E 451 455 100
E 451 452 108
E 452 484 106
E 452 468 100
E 452 460 106
E 452 456 106
E 453 485 100
E 453 469 103
E 453 461 106
E 453 455 103
E 453 454 107
E 454 486 108
E 454 470 108
E 454 462 108
E 454 456 107
E 455 487 101
E 455 471 108
E 455 463 103
E 455 456 100
E 456 488 101
E 456 472 106
E 456 464 109
E 457 489 102
E 457 473 106
E 457 461 102
E 457 459 109
E 457 458 100
E 458 490 104
E 458 474 106
E 458 462 108
E 458 460 104
E 459 491 107
E 459 475 108
E 459 463 100
E 459 460 110
E 460 492 106
E 460 476 110
E 460 464 103
E 461 493 109
E 461 477 102
E 461 463 105
E 461 462 101
E 462 494 109
E 462 478 107
E 462 464 100
E 463 495 100
E 463 479 108
E 463 464 102
E 464 496 100
E 464 480 102
E 465 497 107
E 465 473 102
E 465 469 107
E 465 467 103
E 465 466 103
E 466 498 103
E 466 474 100
E 466 470 110
E 466 468 102
E 467 499 107
E 467 475 102
E 467 471 110
E 467 468 100
E 468 500 108
E 468 476 103
E 468 472 107
E 469 501 104
E 469 477 101
E 469 471 108
E 469 470 102
E 470 502 105
E 470 478 100
E 470 472 103
E 471 503 105
E 471 479 110
E 471 472 110
E 472 504 106
E 472 480 109
E 473 505 103
E 473 477 109
E 473 475 100
E 473 474 102
E 474 506 103
E 474 478 102
E 474 476 105
E 475 507 108
E 475 479 102
E 475 476 105
E 476 508 102
E 476 480 102
E 477 509 107
E 477 479 109
E 477 478 105
E 478 510 103
E 478 480 101
E 479 511 103
E 479 480 102
E 480 512 107
E 481 497 100
E 481 489 100
E 481 485 103
E 481 483 102
E 481 482 103
E 482 498 106
E 482 490 104
E 482 486 103
E 482 484 109
E 483 499 103
E 483 491 110
E 483 487 103
E 483 484 108
E 484 500 107
E 484 492 108
E 484 488 110
E 485 501 105
E 485 493 108
E 485 487 108
E 485 486 103
E 486 502 106
E 486 494 103
E 486 488 101
E 487 503 100
E 487 495 107
E 487 488 102
E 488 504 104
E 488 496 105
E 489 505 103
E 489 493 105
E 489 491 110
E 489 490 106
E 490 506 100
E 490 494 110
E 490 492 105
E 491 507 107
E 491 495 106
E 491 492 102
E 492 508 103
E 492 496 101
E 493 509 104
E 493 495 110
E 493 494 101
E 494 510 104
E 494 496 109
E 495 511 102
E 495 496 108
E 496 512 108
E 497 505 109
E 497 501 109
E 497 499 103
E 497 498 106
E 498 506 106
E 498 502 100
E 498 500 108
E 499 507 101
E 499 503 104
E 499 500 108
E 500 508 103
E 500 504 107
E 501 509 105
E 501 503 105
E 501 502 109
E 502 510 101
E 502 504 104
E 503 511 102
E 503 504 104
E 504 512 105
E 505 509 110
E 505 507 110
E 505 506 105
E 506 510 101
E 506 508 107
E 507 511 105
E 507 508 109
E 508 512 106
E 509 511 104
E 509 510 108
E 510 512 110
E 511 512 103
END

SECTION Terminals
Terminals 256
T 1
T 4
T 6
T 7
T 10
T 11
T 13
T 16
T 18
T 19
T 21
T 24
T 25
T 28
T 30
T 31
T 34
T 35
T 37
T 40
T 41
T 44
T 46
T 47
T 49
T 52
T 54
T 55
T 58
T 59
T 61
T 64
T 66
T 67
T 69
T 72
T 73
T 76
T 78
T 79
T 81
T 84
T 86
T 87
T 90
T 91
T 93
T 96
T 97
T 100
T 102
T 103
T 106
T 107
T 109
T 112
T 114
T 115
T 117
T 120
T 121
T 124
T 126
T 127
T 130
T 131
T 133
T 136
T 137
T 140
T 142
T 143
T 145
T 148
T 150
T 151
T 154
T 155
T 157
T 160
T 161
T 164
T 166
T 167
T 170
T 171
T 173
T 176
T 178
T 179
T 181
T 184
T 185
T 188
T 190
T 191
T 193
T 196
T 198
T 199
T 202
T 203
T 205
T 208
T 210
T 211
T 213
T 216
T 217
T 220
T 222
T 223
T 226
T 227
T 229
T 232
T 233
T 236
T 238
T 239
T 241
T 244
T 246
T 247
T 250
T 251
T 253
T 256
T 258
T 259
T 261
T 264
T 265
T 268
T 270
T 271
T 273
T 276
T 278
T 279
T 282
T 283
T 285
T 288
T 289
T 292
T 294
T 295
T 298
T 299
T 301
T 304
T 306
T 307
T 309
T 312
T 313
T 316
T 318
T 319
T 321
T 324
T 326
T 327
T 330
T 331
T 333
T 336
T 338
T 339
T 341
T 344
T 345
T 348
T 350
T 351
T 354
T 355
T 357
T 360
T 361
T 364
T 366
T 367
T 369
T 372
T 374
T 375
T 378
T 379
T 381
T 384
T 385
T 388
T 390
T 391
T 394
T 395
T 397
T 400
T 402
T 403
T 405
T 408
T 409
T 412
T 414
T 415
T 418
T 419
T 421
T 424
T 425
T 428
T 430
T 431
T 433
T 436
T 438
T 439
T 442
T 443
T 445
T 448
T 450
T 451
T 453
T 456
T 457
T 460
T 462
T 463
T 465
T 468
T 470
T 471
T 474
T 475
T 477
T 480
T 481
T 484
T 486
T 487
T 490
T 491
T 493
T 496
T 498
T 499
T 501
T 504
T 505
T 508
T 510
T 511
END

EOF
